NAME : random156.963.tour
COMMENT : Length = 963
COMMENT : Found by LKH [Keld Helsgaun] Mon Dec 30 22:02:59 2024
TYPE : TOUR
DIMENSION : 156
TOUR_SECTION
1
22
80
85
14
5
12
129
63
156
54
2
140
133
153
87
93
6
50
43
30
77
141
9
123
37
40
128
27
13
117
103
147
114
89
84
121
104
52
41
88
96
86
23
91
115
10
64
75
126
125
110
11
116
136
68
16
38
83
120
26
100
78
49
90
47
102
127
48
107
17
155
44
98
33
15
97
130
139
112
51
34
138
39
53
45
142
79
95
59
70
66
108
134
58
4
145
99
146
32
144
72
76
56
7
150
57
61
82
18
29
67
148
143
35
3
135
124
36
154
113
74
31
152
111
131
81
119
137
69
106
122
105
42
101
19
20
60
21
24
46
92
118
62
8
65
25
151
55
71
94
73
132
28
109
149
-1
EOF
